(set-info :smt-lib-version 2.6)
(set-logic QF_BV)
(set-info :source |
 Patrice Godefroid, SAGE (systematic dynamic test generation)
 For more information: http://research.microsoft.com/en-us/um/people/pg/public_psfiles/ndss2008.pdf
|)
(set-info :category "industrial")
(set-info :status unsat)
(declare-fun T4_2115565 () (_ BitVec 32))
(declare-fun T1_2115565 () (_ BitVec 8))
(declare-fun T1_2115566 () (_ BitVec 8))
(declare-fun T1_2115567 () (_ BitVec 8))
(declare-fun T1_2115568 () (_ BitVec 8))
(assert (let ((?v_0 (bvadd T4_2115565 (_ bv0 32)))) (let ((?v_2 (bvsub (_ bv0 32) ((_ zero_extend 24) (ite (bvult ?v_0 (_ bv0 32)) (_ bv1 8) (_ bv0 8))))) (?v_1 (bvule (_ bv0 32) ?v_0))) (and true (= T4_2115565 (bvor (bvshl (bvor (bvshl (bvor (bvshl ((_ zero_extend 24) T1_2115568) (_ bv8 32)) ((_ zero_extend 24) T1_2115567)) (_ bv8 32)) ((_ zero_extend 24) T1_2115566)) (_ bv8 32)) ((_ zero_extend 24) T1_2115565))) (bvslt ?v_2 (_ bv0 32)) ?v_1 (bvult (_ bv0 32) ?v_0) (not (= ?v_0 (_ bv0 32))) ?v_1 (bvsle ?v_2 (_ bv0 32))))))
(check-sat)
(exit)
